nNurses = 82;
nHours = 32;
minHours = 8;
maxHours = 12;
maxConsec = 10;
maxPresence = 14;
demand = [6, 10, 10, 10, 13, 9, 7, 9, 11, 15, 15, 15, 20, 21, 26, 29, 29, 28, 27, 26, 29, 27, 23, 25, 28, 28, 29, 27, 22, 23, 24, 21];
